NAME : 10_3_3_3_(45).dat
COMMENT : Henke, Speranza, Wäscher, 2015
TYPE : MCVRP
DIMENSION : 11
EDGE_WEIGHT_TYPE : DISTANCE_MATRIX
CAPACITY : 1000
VEHICLES : 3
PRODUCT TYPES : 3
COMPARTMENTS : 3
NODE_COORD_SECTION
1 50 50
2 6.75 80.16
3 63.49 93.02
4 35.82 27.23
5 37.07 22.54
6 21.81 25.09
7 77.56 6.55
8 99.85 28.88
9 89.44 5.42
10 52.88 74.05
11 34.41 17.05
DEMAND_SECTION
1 0 0 0
2 75 3 23
3 11 21 14
4 83 40 32
5 81 77 35
6 34 90 57
7 106 71 2
8 81 73 36
9 34 6 45
10 127 24 43
11 156 68 26
DEPOT_SECTION
1
EOF